50
    32    64    49    68    32    36    95    69    92   100    70    77    73    91    93    50    77    13    74    61    45    32    12    97    62    84    99    63    50    67    15    78    73    46    33    77    37    53    15    12    86    82    14    49     8    95    75    70    28    22
     2     7     4    10     3     4     8     7     1     9     5     6     1     6     9     7     3    10     1     5     6     3    10     1     4     9    10     7     3    10     4     4     9    10     3     5     3     1     2     9     5     5     7     7    10     3     7     9     4     6
  1303   982  2263  2104   872  1566  1797  2064   780  2264  2219  2205  2242  1310  1691  1584  1104  1966  2736  1061  1811  1153  1315   623  2423  2413  2531  2497  1642  2223  2752  1522  2350   643   684  2159  2425  1524  2656  1917   598  2308  1268  1412  1160  1196  1519  1688  1295   830
